NAME : traveling-santa-2018-prime-paths.30338.tour
COMMENT : Length = 30338
COMMENT : Found by LKH [Keld Helsgaun] Sun Jun 12 20:00:32 2022
TYPE : TOUR
DIMENSION : 100
TOUR_SECTION
1
77
2
91
7
34
15
63
60
76
5
44
4
39
42
45
22
46
37
35
40
58
17
89
98
85
47
27
10
68
55
84
43
70
24
23
93
48
56
96
3
59
66
69
49
75
20
19
83
36
94
100
41
92
9
14
13
61
90
87
33
12
21
88
31
65
38
57
18
11
78
81
97
62
30
16
74
26
32
50
73
86
51
29
64
82
72
52
53
71
8
25
99
28
67
79
6
80
54
95
-1
EOF
